\ENCODING=ISO-8859-1
\Problem name: ilog.cplex

Maximize
 obj: 846 x(0)#0 + 578 x(1)#1 + 811 x(2)#2 + 890 x(3)#3 + 795 x(4)#4
      + 521 x(5)#5 + 718 x(6)#6 + 757 x(7)#7 + 995 x(8)#8 + 825 x(9)#9
      + 843 x(10)#10 + 874 x(11)#11 + 834 x(12)#12 + 831 x(13)#13
      + 556 x(14)#14 + 601 x(15)#15 + 472 x(16)#16 + 487 x(17)#17
      + 640 x(18)#18 + 885 x(19)#19 + 766 x(20)#20 + 867 x(21)#21
      + 849 x(22)#22 + 1053 x(23)#23 + 532 x(24)#24 + 1120 x(25)#25
      + 664 x(26)#26 + 1030 x(27)#27 + 624 x(28)#28 + 627 x(29)#29
      + 905 x(30)#30 + 1051 x(31)#31 + 532 x(32)#32 + 906 x(33)#33
      + 695 x(34)#34 + 1121 x(35)#35 + 771 x(36)#36 + 845 x(37)#37
      + 735 x(38)#38 + 759 x(39)#39 + 684 x(40)#40 + 1088 x(41)#41
      + 773 x(42)#42 + 967 x(43)#43 + 942 x(44)#44 + 906 x(45)#45
      + 626 x(46)#46 + 827 x(47)#47 + 814 x(48)#48 + 573 x(49)#49
      + 851 x(50)#50 + 925 x(51)#51 + 670 x(52)#52 + 551 x(53)#53
      + 557 x(54)#54 + 596 x(55)#55 + 669 x(56)#56 + 717 x(57)#57
      + 907 x(58)#58 + 810 x(59)#59 + 454 x(60)#60 + 985 x(61)#61
      + 1028 x(62)#62 + 940 x(63)#63 + 864 x(64)#64 + 834 x(65)#65
      + 569 x(66)#66 + 758 x(67)#67 + 689 x(68)#68 + 718 x(69)#69
      + 922 x(70)#70 + 522 x(71)#71 + 885 x(72)#72 + 438 x(73)#73
      + 924 x(74)#74 + 721 x(75)#75 + 506 x(76)#76 + 891 x(77)#77
      + 774 x(78)#78 + 904 x(79)#79 + 895 x(80)#80 + 525 x(81)#81
      + 743 x(82)#82 + 452 x(83)#83 + 915 x(84)#84 + 636 x(85)#85
      + 982 x(86)#86 + 634 x(87)#87 + 585 x(88)#88 + 602 x(89)#89
      + 768 x(90)#90 + 711 x(91)#91 + 707 x(92)#92 + 914 x(93)#93
      + 858 x(94)#94 + 757 x(95)#95 + 915 x(96)#96 + 689 x(97)#97
      + 798 x(98)#98 + 646 x(99)#99
Subject To
 c1:  478 x(0)#0 + 209 x(1)#1 + 549 x(2)#2 + 155 x(3)#3 + 805 x(4)#4
      + 64 x(5)#5 + 528 x(6)#6 + 904 x(7)#7 + 832 x(8)#8 + 14 x(9)#9
      + 606 x(10)#10 + 436 x(11)#11 + 221 x(12)#12 + 937 x(13)#13
      + 477 x(14)#14 + 646 x(15)#15 + 472 x(16)#16 + 708 x(17)#17
      + 678 x(18)#18 + 633 x(19)#19 + 7 x(20)#20 + 110 x(21)#21 + 435 x(22)#22
      + 929 x(23)#23 + 925 x(24)#24 + 584 x(25)#25 + 556 x(26)#26
      + 795 x(27)#27 + 435 x(28)#28 + 73 x(29)#29 + 934 x(30)#30 + 534 x(31)#31
      + 355 x(32)#32 + 954 x(33)#33 + 834 x(34)#34 + 347 x(35)#35
      + 730 x(36)#36 + 872 x(37)#37 + 407 x(38)#38 + 789 x(39)#39
      + 968 x(40)#40 + 924 x(41)#41 + 519 x(42)#42 + 945 x(43)#43
      + 704 x(44)#44 + 997 x(45)#45 + 866 x(46)#46 + 380 x(47)#47
      + 248 x(48)#48 + 96 x(49)#49 + 476 x(50)#50 + 7 x(51)#51 + 752 x(52)#52
      + 565 x(53)#53 + 799 x(54)#54 + 827 x(55)#55 + 99 x(56)#56 + 769 x(57)#57
      + 9 x(58)#58 + 228 x(59)#59 + 590 x(60)#60 + 786 x(61)#61 + 355 x(62)#62
      + 263 x(63)#63 + 955 x(64)#64 + 590 x(65)#65 + 255 x(66)#66
      + 604 x(67)#67 + 989 x(68)#68 + 723 x(69)#69 + 191 x(70)#70
      + 258 x(71)#71 + 664 x(72)#72 + 37 x(73)#73 + 805 x(74)#74 + 836 x(75)#75
      + 552 x(76)#76 + 792 x(77)#77 + 86 x(78)#78 + 935 x(79)#79 + 711 x(80)#80
      + 868 x(81)#81 + 373 x(82)#82 + 9 x(83)#83 + 635 x(84)#84 + 641 x(85)#85
      + 441 x(86)#86 + 305 x(87)#87 + 669 x(88)#88 + 647 x(89)#89
      + 686 x(90)#90 + 640 x(91)#91 + 625 x(92)#92 + 615 x(93)#93
      + 165 x(94)#94 + 491 x(95)#95 + 934 x(96)#96 + 6 x(97)#97 + 34 x(98)#98
      + 717 x(99)#99 <= 13653
 c2:  598 x(0)#0 + 280 x(1)#1 + 441 x(2)#2 + 103 x(3)#3 + 594 x(4)#4
      + 278 x(5)#5 + 272 x(6)#6 + 703 x(7)#7 + 781 x(8)#8 + 701 x(9)#9
      + 338 x(10)#10 + 273 x(11)#11 + 821 x(12)#12 + 798 x(13)#13
      + 801 x(14)#14 + 376 x(15)#15 + 712 x(16)#16 + 164 x(17)#17
      + 937 x(18)#18 + 602 x(19)#19 + 156 x(20)#20 + 114 x(21)#21
      + 220 x(22)#22 + 343 x(23)#23 + 749 x(24)#24 + 713 x(25)#25
      + 121 x(26)#26 + 240 x(27)#27 + 21 x(28)#28 + 26 x(29)#29 + 580 x(30)#30
      + 760 x(31)#31 + 29 x(32)#32 + 295 x(33)#33 + 516 x(34)#34 + 707 x(35)#35
      + 429 x(36)#36 + 209 x(37)#37 + 375 x(38)#38 + 112 x(39)#39
      + 397 x(40)#40 + 809 x(41)#41 + 782 x(42)#42 + 712 x(43)#43
      + 306 x(44)#44 + 529 x(45)#45 + 375 x(46)#46 + 212 x(47)#47
      + 335 x(48)#48 + 510 x(49)#49 + 662 x(50)#50 + 16 x(51)#51 + 457 x(52)#52
      + 699 x(53)#53 + 123 x(54)#54 + 393 x(55)#55 + 160 x(56)#56
      + 710 x(57)#57 + 90 x(58)#58 + 896 x(59)#59 + 246 x(60)#60 + 409 x(61)#61
      + 877 x(62)#62 + 475 x(63)#63 + 674 x(64)#64 + x(65)#65 + 274 x(66)#66
      + 584 x(67)#67 + 450 x(68)#68 + 94 x(69)#69 + 915 x(70)#70 + 841 x(71)#71
      + 25 x(72)#72 + 599 x(73)#73 + 377 x(74)#74 + 934 x(75)#75 + 270 x(76)#76
      + 634 x(77)#77 + 752 x(78)#78 + 669 x(79)#79 + 704 x(80)#80
      + 838 x(81)#81 + 953 x(82)#82 + 970 x(83)#83 + 467 x(84)#84
      + 329 x(85)#85 + 787 x(86)#86 + 54 x(87)#87 + 516 x(88)#88 + 561 x(89)#89
      + 358 x(90)#90 + 433 x(91)#91 + 715 x(92)#92 + 11 x(93)#93 + 860 x(94)#94
      + 888 x(95)#95 + 613 x(96)#96 + 949 x(97)#97 + 296 x(98)#98
      + 300 x(99)#99 <= 12041
 c3:  7 x(0)#0 + 60 x(1)#1 + 644 x(2)#2 + 944 x(3)#3 + 50 x(4)#4 + 492 x(5)#5
      + 580 x(6)#6 + 209 x(7)#7 + 353 x(8)#8 + 323 x(9)#9 + 308 x(10)#10
      + 875 x(11)#11 + 780 x(12)#12 + 324 x(13)#13 + 178 x(14)#14
      + 479 x(15)#15 + 226 x(16)#16 + 637 x(17)#17 + 251 x(18)#18
      + 870 x(19)#19 + 392 x(20)#20 + 1000 x(21)#21 + 782 x(22)#22
      + 652 x(23)#23 + 371 x(24)#24 + 929 x(25)#25 + 274 x(26)#26
      + 693 x(27)#27 + 919 x(28)#28 + 12 x(29)#29 + 737 x(30)#30 + 321 x(31)#31
      + 758 x(32)#32 + 707 x(33)#33 + 122 x(34)#34 + 383 x(35)#35
      + 775 x(36)#36 + 538 x(37)#37 + 111 x(38)#38 + 170 x(39)#39
      + 500 x(40)#40 + 740 x(41)#41 + 995 x(42)#42 + 630 x(43)#43
      + 210 x(44)#44 + 697 x(45)#45 + 200 x(46)#46 + 688 x(47)#47
      + 542 x(48)#48 + 654 x(49)#49 + 668 x(50)#50 + 57 x(51)#51 + 820 x(52)#52
      + 315 x(53)#53 + 946 x(54)#54 + 17 x(55)#55 + 695 x(56)#56 + 354 x(57)#57
      + 47 x(58)#58 + 99 x(59)#59 + 47 x(60)#60 + 541 x(61)#61 + 939 x(62)#62
      + 933 x(63)#63 + 965 x(64)#64 + 500 x(65)#65 + 92 x(66)#66 + 396 x(67)#67
      + 192 x(68)#68 + 497 x(69)#69 + 185 x(70)#70 + 41 x(71)#71 + 262 x(72)#72
      + 196 x(73)#73 + 180 x(74)#74 + 781 x(75)#75 + 562 x(76)#76
      + 773 x(77)#77 + 917 x(78)#78 + 798 x(79)#79 + 63 x(80)#80 + 813 x(81)#81
      + 837 x(82)#82 + 575 x(83)#83 + 288 x(84)#84 + 43 x(85)#85 + 465 x(86)#86
      + 280 x(87)#87 + 773 x(88)#88 + 951 x(89)#89 + 987 x(90)#90
      + 523 x(91)#91 + 445 x(92)#92 + 208 x(93)#93 + 47 x(94)#94 + 553 x(95)#95
      + 662 x(96)#96 + 606 x(97)#97 + 411 x(98)#98 + 200 x(99)#99 <= 12159
 c4:  518 x(0)#0 + 448 x(1)#1 + 516 x(2)#2 + 406 x(3)#3 + 727 x(4)#4
      + 939 x(5)#5 + 575 x(6)#6 + 82 x(7)#7 + 628 x(8)#8 + 78 x(9)#9
      + 950 x(10)#10 + 135 x(11)#11 + 510 x(12)#12 + 481 x(13)#13
      + 671 x(14)#14 + 359 x(15)#15 + 436 x(16)#16 + 575 x(17)#17
      + 916 x(18)#18 + 89 x(19)#19 + 999 x(20)#20 + 15 x(21)#21 + 245 x(22)#22
      + 891 x(23)#23 + 713 x(24)#24 + 470 x(25)#25 + 469 x(26)#26
      + 654 x(27)#27 + 489 x(28)#28 + 826 x(29)#29 + 582 x(30)#30
      + 451 x(31)#31 + 887 x(32)#32 + 559 x(33)#33 + 613 x(34)#34
      + 441 x(35)#35 + 591 x(36)#36 + 314 x(37)#37 + 78 x(38)#38 + 564 x(39)#39
      + 120 x(40)#40 + 463 x(41)#41 + 190 x(42)#42 + 388 x(43)#43
      + 674 x(44)#44 + 426 x(45)#45 + 498 x(46)#46 + 859 x(47)#47
      + 665 x(48)#48 + 15 x(49)#49 + 443 x(50)#50 + 916 x(51)#51 + 299 x(52)#52
      + 779 x(53)#53 + 158 x(54)#54 + 804 x(55)#55 + 211 x(56)#56
      + 567 x(57)#57 + 572 x(58)#58 + 602 x(59)#59 + 620 x(60)#60
      + 127 x(61)#61 + 222 x(62)#62 + 317 x(63)#63 + 893 x(64)#64
      + 943 x(65)#65 + 951 x(66)#66 + 450 x(67)#67 + 855 x(68)#68
      + 136 x(69)#69 + 927 x(70)#70 + 234 x(71)#71 + 974 x(72)#72 + 93 x(73)#73
      + 555 x(74)#74 + 69 x(75)#75 + 651 x(76)#76 + 817 x(77)#77 + 990 x(78)#78
      + 658 x(79)#79 + 758 x(80)#80 + 324 x(81)#81 + 149 x(82)#82
      + 361 x(83)#83 + 747 x(84)#84 + 338 x(85)#85 + 405 x(86)#86
      + 374 x(87)#87 + 916 x(88)#88 + 57 x(89)#89 + 525 x(90)#90 + 358 x(91)#91
      + 840 x(92)#92 + 182 x(93)#93 + 827 x(94)#94 + 406 x(95)#95
      + 583 x(96)#96 + 335 x(97)#97 + 32 x(98)#98 + 793 x(99)#99 <= 12833
 c5:  821 x(0)#0 + 390 x(1)#1 + 11 x(2)#2 + 542 x(3)#3 + 279 x(4)#4
      + 386 x(5)#5 + 694 x(6)#6 + 586 x(7)#7 + 377 x(8)#8 + 757 x(9)#9
      + 234 x(10)#10 + 691 x(11)#11 + 491 x(12)#12 + 710 x(13)#13
      + 171 x(14)#14 + 80 x(15)#15 + 183 x(16)#16 + 28 x(17)#17 + 315 x(18)#18
      + 457 x(19)#19 + 331 x(20)#20 + 751 x(21)#21 + 992 x(22)#22
      + 706 x(23)#23 + 238 x(24)#24 + 758 x(25)#25 + 309 x(26)#26
      + 606 x(27)#27 + 389 x(28)#28 + 952 x(29)#29 + 393 x(30)#30
      + 958 x(31)#31 + 867 x(32)#32 + 923 x(33)#33 + 97 x(34)#34 + 678 x(35)#35
      + 114 x(36)#36 + 542 x(37)#37 + 518 x(38)#38 + 867 x(39)#39 + 92 x(40)#40
      + 519 x(41)#41 + 199 x(42)#42 + 496 x(43)#43 + 792 x(44)#44
      + 932 x(45)#45 + 141 x(46)#46 + 393 x(47)#47 + 517 x(48)#48
      + 282 x(49)#49 + 96 x(50)#50 + 813 x(51)#51 + 576 x(52)#52 + 238 x(53)#53
      + 900 x(54)#54 + 326 x(55)#55 + 973 x(56)#56 + 863 x(57)#57
      + 923 x(58)#58 + 477 x(59)#59 + 39 x(60)#60 + 329 x(61)#61 + 761 x(62)#62
      + 792 x(63)#63 + 208 x(64)#64 + 288 x(65)#65 + 835 x(66)#66
      + 580 x(67)#67 + 479 x(68)#68 + 80 x(69)#69 + 973 x(70)#70 + 40 x(71)#71
      + 645 x(72)#72 + 542 x(73)#73 + 197 x(74)#74 + 423 x(75)#75
      + 349 x(76)#76 + 534 x(77)#77 + 722 x(78)#78 + 907 x(79)#79
      + 503 x(80)#80 + 235 x(81)#81 + 604 x(82)#82 + 18 x(83)#83 + 531 x(84)#84
      + 969 x(85)#85 + 906 x(86)#86 + 954 x(87)#87 + 277 x(88)#88
      + 602 x(89)#89 + 342 x(90)#90 + 91 x(91)#91 + 877 x(92)#92 + 786 x(93)#93
      + 434 x(94)#94 + 737 x(95)#95 + 132 x(96)#96 + 204 x(97)#97
      + 750 x(98)#98 + 390 x(99)#99 <= 12701
 c6:  830 x(0)#0 + 72 x(1)#1 + 961 x(2)#2 + 289 x(3)#3 + 882 x(4)#4
      + 131 x(5)#5 + 723 x(6)#6 + 265 x(7)#7 + 467 x(8)#8 + 613 x(9)#9
      + 307 x(10)#10 + 896 x(11)#11 + 427 x(12)#12 + 424 x(13)#13 + 38 x(14)#14
      + 320 x(15)#15 + 228 x(16)#16 + 333 x(17)#17 + 234 x(18)#18
      + 222 x(19)#19 + 687 x(20)#20 + 783 x(21)#21 + 350 x(22)#22
      + 960 x(23)#23 + 472 x(24)#24 + 196 x(25)#25 + 202 x(26)#26
      + 592 x(27)#27 + 231 x(28)#28 + 255 x(29)#29 + 789 x(30)#30
      + 461 x(31)#31 + 544 x(32)#32 + 71 x(33)#33 + 954 x(34)#34 + 622 x(35)#35
      + 29 x(36)#36 + 61 x(37)#37 + 618 x(38)#38 + 790 x(39)#39 + 208 x(40)#40
      + 48 x(41)#41 + 552 x(42)#42 + 687 x(43)#43 + 723 x(44)#44 + 552 x(45)#45
      + 783 x(46)#46 + 942 x(47)#47 + 924 x(48)#48 + 348 x(49)#49
      + 300 x(50)#50 + 586 x(51)#51 + 577 x(52)#52 + 380 x(53)#53
      + 378 x(54)#54 + 876 x(55)#55 + 79 x(56)#56 + 678 x(57)#57 + 585 x(58)#58
      + 980 x(59)#59 + 170 x(60)#60 + 266 x(61)#61 + 470 x(62)#62
      + 426 x(63)#63 + 987 x(64)#64 + 716 x(65)#65 + 385 x(66)#66
      + 175 x(67)#67 + 381 x(68)#68 + 508 x(69)#69 + 370 x(70)#70
      + 279 x(71)#71 + 790 x(72)#72 + 503 x(73)#73 + 145 x(74)#74
      + 967 x(75)#75 + 54 x(76)#76 + 724 x(77)#77 + 798 x(78)#78 + 622 x(79)#79
      + 25 x(80)#80 + 278 x(81)#81 + 319 x(82)#82 + 93 x(83)#83 + 629 x(84)#84
      + 236 x(85)#85 + 203 x(86)#86 + 70 x(87)#87 + 410 x(88)#88 + 441 x(89)#89
      + 905 x(90)#90 + 655 x(91)#91 + 452 x(92)#92 + 924 x(93)#93
      + 730 x(94)#94 + 355 x(95)#95 + 681 x(96)#96 + 664 x(97)#97
      + 950 x(98)#98 + 212 x(99)#99 <= 12121
 c7:  2 x(0)#0 + 281 x(1)#1 + 882 x(2)#2 + 914 x(3)#3 + 652 x(4)#4 + 659 x(5)#5
      + 733 x(6)#6 + 553 x(7)#7 + 693 x(8)#8 + 747 x(9)#9 + 997 x(10)#10
      + 535 x(11)#11 + 701 x(12)#12 + 170 x(13)#13 + 236 x(14)#14
      + 921 x(15)#15 + 130 x(16)#16 + 428 x(17)#17 + 553 x(18)#18
      + 520 x(19)#19 + 633 x(20)#20 + 941 x(21)#21 + 440 x(22)#22
      + 959 x(23)#23 + 349 x(24)#24 + 318 x(25)#25 + 153 x(26)#26
      + 529 x(27)#27 + 601 x(28)#28 + 122 x(29)#29 + 145 x(30)#30
      + 820 x(31)#31 + 101 x(32)#32 + 660 x(33)#33 + 867 x(34)#34
      + 928 x(35)#35 + 923 x(36)#36 + 52 x(37)#37 + 533 x(38)#38 + 550 x(39)#39
      + 750 x(40)#40 + 525 x(41)#41 + 98 x(42)#42 + 600 x(43)#43 + 271 x(44)#44
      + 624 x(45)#45 + 794 x(46)#46 + 69 x(47)#47 + 368 x(48)#48 + 134 x(49)#49
      + 963 x(50)#50 + 641 x(51)#51 + 68 x(52)#52 + 952 x(53)#53 + 270 x(54)#54
      + 597 x(55)#55 + 277 x(56)#56 + 7 x(57)#57 + 666 x(58)#58 + 508 x(59)#59
      + 179 x(60)#60 + 83 x(61)#61 + 425 x(62)#62 + 681 x(63)#63 + 653 x(64)#64
      + 788 x(65)#65 + 989 x(66)#66 + 993 x(67)#67 + 649 x(68)#68
      + 929 x(69)#69 + 952 x(70)#70 + 492 x(71)#71 + 643 x(72)#72
      + 203 x(73)#73 + 773 x(74)#74 + 715 x(75)#75 + 512 x(76)#76 + 25 x(77)#77
      + 698 x(78)#78 + 432 x(79)#79 + 775 x(80)#80 + 234 x(81)#81
      + 154 x(82)#82 + 360 x(83)#83 + 28 x(84)#84 + 268 x(85)#85 + 205 x(86)#86
      + 98 x(87)#87 + 420 x(88)#88 + 416 x(89)#89 + 846 x(90)#90 + 292 x(91)#91
      + 304 x(92)#92 + 90 x(93)#93 + 512 x(94)#94 + 833 x(95)#95 + 705 x(96)#96
      + 977 x(97)#97 + 255 x(98)#98 + 525 x(99)#99 <= 12806
 c8:  872 x(0)#0 + 394 x(1)#1 + 735 x(2)#2 + 740 x(3)#3 + 91 x(4)#4 + 21 x(5)#5
      + 272 x(6)#6 + 518 x(7)#7 + 886 x(8)#8 + 540 x(9)#9 + 452 x(10)#10
      + 964 x(11)#11 + 319 x(12)#12 + 7 x(13)#13 + 958 x(14)#14 + 350 x(15)#15
      + 976 x(16)#16 + x(17)#17 + 851 x(18)#18 + 652 x(19)#19 + 802 x(20)#20
      + 136 x(21)#21 + 685 x(22)#22 + 89 x(23)#23 + 14 x(24)#24 + 935 x(25)#25
      + 387 x(26)#26 + 678 x(27)#27 + 915 x(28)#28 + 243 x(29)#29
      + 322 x(30)#30 + 916 x(31)#31 + 783 x(32)#32 + 32 x(33)#33 + 818 x(34)#34
      + 943 x(35)#35 + 654 x(36)#36 + 457 x(37)#37 + 257 x(38)#38
      + 322 x(39)#39 + 315 x(40)#40 + 426 x(41)#41 + 520 x(42)#42
      + 743 x(43)#43 + 273 x(44)#44 + 901 x(45)#45 + 855 x(46)#46
      + 956 x(47)#47 + 368 x(48)#48 + 510 x(49)#49 + 777 x(50)#50
      + 972 x(51)#51 + 752 x(52)#52 + 463 x(53)#53 + 518 x(54)#54
      + 155 x(55)#55 + 343 x(56)#56 + 499 x(57)#57 + 837 x(58)#58
      + 206 x(59)#59 + 707 x(60)#60 + 468 x(61)#61 + 494 x(62)#62
      + 998 x(63)#63 + 30 x(64)#64 + 746 x(65)#65 + 401 x(66)#66 + 715 x(67)#67
      + 964 x(68)#68 + 322 x(69)#69 + 273 x(70)#70 + 952 x(71)#71
      + 638 x(72)#72 + 882 x(73)#73 + 933 x(74)#74 + 674 x(75)#75
      + 284 x(76)#76 + 765 x(77)#77 + 436 x(78)#78 + 264 x(79)#79
      + 812 x(80)#80 + 476 x(81)#81 + 582 x(82)#82 + 434 x(83)#83
      + 437 x(84)#84 + 558 x(85)#85 + 795 x(86)#86 + 881 x(87)#87
      + 242 x(88)#88 + 909 x(89)#89 + 68 x(90)#90 + 539 x(91)#91 + 879 x(92)#92
      + 465 x(93)#93 + 651 x(94)#94 + 114 x(95)#95 + 253 x(96)#96
      + 993 x(97)#97 + 483 x(98)#98 + 657 x(99)#99 <= 13888
 c9:  957 x(0)#0 + 893 x(1)#1 + 975 x(2)#2 + 742 x(3)#3 + 687 x(4)#4
      + 732 x(5)#5 + 916 x(6)#6 + 790 x(7)#7 + 232 x(8)#8 + 150 x(9)#9
      + 942 x(10)#10 + 643 x(11)#11 + 908 x(12)#12 + 593 x(13)#13
      + 363 x(14)#14 + 238 x(15)#15 + 97 x(16)#16 + 517 x(17)#17 + 913 x(18)#18
      + 709 x(19)#19 + 119 x(20)#20 + 382 x(21)#21 + 625 x(22)#22
      + 851 x(23)#23 + 233 x(24)#24 + 988 x(25)#25 + 624 x(26)#26
      + 354 x(27)#27 + 708 x(28)#28 + 476 x(29)#29 + 793 x(30)#30
      + 569 x(31)#31 + 642 x(32)#32 + 620 x(33)#33 + 436 x(34)#34
      + 701 x(35)#35 + 214 x(36)#36 + 49 x(37)#37 + 261 x(38)#38 + 481 x(39)#39
      + 909 x(40)#40 + 705 x(41)#41 + 724 x(42)#42 + 365 x(43)#43
      + 409 x(44)#44 + 880 x(45)#45 + 480 x(46)#46 + 944 x(47)#47
      + 276 x(48)#48 + 603 x(49)#49 + 851 x(50)#50 + 518 x(51)#51 + 70 x(52)#52
      + 381 x(53)#53 + 243 x(54)#54 + 447 x(55)#55 + 479 x(56)#56
      + 421 x(57)#57 + 590 x(58)#58 + 245 x(59)#59 + 644 x(60)#60
      + 988 x(61)#61 + 555 x(62)#62 + 771 x(63)#63 + 634 x(64)#64 + 47 x(65)#65
      + 72 x(66)#66 + 813 x(67)#67 + 891 x(68)#68 + 457 x(69)#69 + 487 x(70)#70
      + 196 x(71)#71 + 875 x(72)#72 + 317 x(73)#73 + 552 x(74)#74
      + 215 x(75)#75 + 521 x(76)#76 + 599 x(77)#77 + 324 x(78)#78
      + 704 x(79)#79 + 591 x(80)#80 + 16 x(81)#81 + 999 x(82)#82 + 931 x(83)#83
      + 880 x(84)#84 + 923 x(85)#85 + 995 x(86)#86 + 223 x(87)#87
      + 563 x(88)#88 + 82 x(89)#89 + 372 x(90)#90 + 290 x(91)#91 + 764 x(92)#92
      + 568 x(93)#93 + 792 x(94)#94 + 247 x(95)#95 + 317 x(96)#96
      + 493 x(97)#97 + 714 x(98)#98 + 574 x(99)#99 <= 13915
 c10: 383 x(0)#0 + 363 x(1)#1 + 611 x(2)#2 + 279 x(3)#3 + 531 x(4)#4
      + 739 x(5)#5 + 303 x(6)#6 + 183 x(7)#7 + 910 x(8)#8 + 102 x(9)#9
      + 481 x(10)#10 + 30 x(11)#11 + 496 x(12)#12 + 53 x(13)#13 + 862 x(14)#14
      + 782 x(15)#15 + 555 x(16)#16 + 807 x(17)#17 + 377 x(18)#18
      + 203 x(19)#19 + 572 x(20)#20 + 926 x(21)#21 + 908 x(22)#22
      + 739 x(23)#23 + 692 x(24)#24 + 808 x(25)#25 + 489 x(26)#26
      + 804 x(27)#27 + 915 x(28)#28 + 70 x(29)#29 + 540 x(30)#30 + 456 x(31)#31
      + 273 x(32)#32 + 727 x(33)#33 + 681 x(34)#34 + 666 x(35)#35
      + 579 x(36)#36 + 658 x(37)#37 + 740 x(38)#38 + 542 x(39)#39
      + 927 x(40)#40 + 989 x(41)#41 + 636 x(42)#42 + 26 x(43)#43 + 985 x(44)#44
      + 249 x(45)#45 + 823 x(46)#46 + 645 x(47)#47 + 257 x(48)#48
      + 617 x(49)#49 + 685 x(50)#50 + 235 x(51)#51 + 595 x(52)#52
      + 607 x(53)#53 + 780 x(54)#54 + 582 x(55)#55 + 740 x(56)#56
      + 853 x(57)#57 + 894 x(58)#58 + 612 x(59)#59 + 724 x(60)#60
      + 899 x(61)#61 + 676 x(62)#62 + 371 x(63)#63 + 833 x(64)#64
      + 526 x(65)#65 + 240 x(66)#66 + 885 x(67)#67 + 797 x(68)#68
      + 162 x(69)#69 + 269 x(70)#70 + 700 x(71)#71 + 381 x(72)#72
      + 413 x(73)#73 + 136 x(74)#74 + 923 x(75)#75 + 889 x(76)#76
      + 772 x(77)#77 + 147 x(78)#78 + 74 x(79)#79 + 137 x(80)#80 + 258 x(81)#81
      + 246 x(82)#82 + 527 x(83)#83 + 94 x(84)#84 + 413 x(85)#85 + 452 x(86)#86
      + 485 x(87)#87 + 212 x(88)#88 + 630 x(89)#89 + 822 x(90)#90
      + 662 x(91)#91 + 881 x(92)#92 + 731 x(93)#93 + 58 x(94)#94 + 743 x(95)#95
      + 791 x(96)#96 + 287 x(97)#97 + 97 x(98)#98 + 56 x(99)#99 <= 13493
Bounds
 0 <= x(0)#0 <= 1
 0 <= x(1)#1 <= 1
 0 <= x(2)#2 <= 1
 0 <= x(3)#3 <= 1
 0 <= x(4)#4 <= 1
 0 <= x(5)#5 <= 1
 0 <= x(6)#6 <= 1
 0 <= x(7)#7 <= 1
 0 <= x(8)#8 <= 1
 0 <= x(9)#9 <= 1
 0 <= x(10)#10 <= 1
 0 <= x(11)#11 <= 1
 0 <= x(12)#12 <= 1
 0 <= x(13)#13 <= 1
 0 <= x(14)#14 <= 1
 0 <= x(15)#15 <= 1
 0 <= x(16)#16 <= 1
 0 <= x(17)#17 <= 1
 0 <= x(18)#18 <= 1
 0 <= x(19)#19 <= 1
 0 <= x(20)#20 <= 1
 0 <= x(21)#21 <= 1
 0 <= x(22)#22 <= 1
 0 <= x(23)#23 <= 1
 0 <= x(24)#24 <= 1
 0 <= x(25)#25 <= 1
 0 <= x(26)#26 <= 1
 0 <= x(27)#27 <= 1
 0 <= x(28)#28 <= 1
 0 <= x(29)#29 <= 1
 0 <= x(30)#30 <= 1
 0 <= x(31)#31 <= 1
 0 <= x(32)#32 <= 1
 0 <= x(33)#33 <= 1
 0 <= x(34)#34 <= 1
 0 <= x(35)#35 <= 1
 0 <= x(36)#36 <= 1
 0 <= x(37)#37 <= 1
 0 <= x(38)#38 <= 1
 0 <= x(39)#39 <= 1
 0 <= x(40)#40 <= 1
 0 <= x(41)#41 <= 1
 0 <= x(42)#42 <= 1
 0 <= x(43)#43 <= 1
 0 <= x(44)#44 <= 1
 0 <= x(45)#45 <= 1
 0 <= x(46)#46 <= 1
 0 <= x(47)#47 <= 1
 0 <= x(48)#48 <= 1
 0 <= x(49)#49 <= 1
 0 <= x(50)#50 <= 1
 0 <= x(51)#51 <= 1
 0 <= x(52)#52 <= 1
 0 <= x(53)#53 <= 1
 0 <= x(54)#54 <= 1
 0 <= x(55)#55 <= 1
 0 <= x(56)#56 <= 1
 0 <= x(57)#57 <= 1
 0 <= x(58)#58 <= 1
 0 <= x(59)#59 <= 1
 0 <= x(60)#60 <= 1
 0 <= x(61)#61 <= 1
 0 <= x(62)#62 <= 1
 0 <= x(63)#63 <= 1
 0 <= x(64)#64 <= 1
 0 <= x(65)#65 <= 1
 0 <= x(66)#66 <= 1
 0 <= x(67)#67 <= 1
 0 <= x(68)#68 <= 1
 0 <= x(69)#69 <= 1
 0 <= x(70)#70 <= 1
 0 <= x(71)#71 <= 1
 0 <= x(72)#72 <= 1
 0 <= x(73)#73 <= 1
 0 <= x(74)#74 <= 1
 0 <= x(75)#75 <= 1
 0 <= x(76)#76 <= 1
 0 <= x(77)#77 <= 1
 0 <= x(78)#78 <= 1
 0 <= x(79)#79 <= 1
 0 <= x(80)#80 <= 1
 0 <= x(81)#81 <= 1
 0 <= x(82)#82 <= 1
 0 <= x(83)#83 <= 1
 0 <= x(84)#84 <= 1
 0 <= x(85)#85 <= 1
 0 <= x(86)#86 <= 1
 0 <= x(87)#87 <= 1
 0 <= x(88)#88 <= 1
 0 <= x(89)#89 <= 1
 0 <= x(90)#90 <= 1
 0 <= x(91)#91 <= 1
 0 <= x(92)#92 <= 1
 0 <= x(93)#93 <= 1
 0 <= x(94)#94 <= 1
 0 <= x(95)#95 <= 1
 0 <= x(96)#96 <= 1
 0 <= x(97)#97 <= 1
 0 <= x(98)#98 <= 1
 0 <= x(99)#99 <= 1
Generals
 x(0)#0  x(1)#1  x(2)#2  x(3)#3  x(4)#4  x(5)#5  x(6)#6  x(7)#7  x(8)#8 
 x(9)#9  x(10)#10  x(11)#11  x(12)#12  x(13)#13  x(14)#14  x(15)#15  x(16)#16 
 x(17)#17  x(18)#18  x(19)#19  x(20)#20  x(21)#21  x(22)#22  x(23)#23 
 x(24)#24  x(25)#25  x(26)#26  x(27)#27  x(28)#28  x(29)#29  x(30)#30 
 x(31)#31  x(32)#32  x(33)#33  x(34)#34  x(35)#35  x(36)#36  x(37)#37 
 x(38)#38  x(39)#39  x(40)#40  x(41)#41  x(42)#42  x(43)#43  x(44)#44 
 x(45)#45  x(46)#46  x(47)#47  x(48)#48  x(49)#49  x(50)#50  x(51)#51 
 x(52)#52  x(53)#53  x(54)#54  x(55)#55  x(56)#56  x(57)#57  x(58)#58 
 x(59)#59  x(60)#60  x(61)#61  x(62)#62  x(63)#63  x(64)#64  x(65)#65 
 x(66)#66  x(67)#67  x(68)#68  x(69)#69  x(70)#70  x(71)#71  x(72)#72 
 x(73)#73  x(74)#74  x(75)#75  x(76)#76  x(77)#77  x(78)#78  x(79)#79 
 x(80)#80  x(81)#81  x(82)#82  x(83)#83  x(84)#84  x(85)#85  x(86)#86 
 x(87)#87  x(88)#88  x(89)#89  x(90)#90  x(91)#91  x(92)#92  x(93)#93 
 x(94)#94  x(95)#95  x(96)#96  x(97)#97  x(98)#98  x(99)#99 
End
